(set-info :smt-lib-version 2.6)
(set-logic QF_NIA)
(set-info :source |
Generated by: Cristina Borralleras, Daniel Larraz, Albert Oliveras, Enric Rodriguez-Carbonell, Albert Rubio
Generated on: 2017-04-27
Generator: VeryMax
Application: Termination proving
Target solver: barcelogic
|)
(set-info :license "https://creativecommons.org/licenses/by/4.0/")
(set-info :category "industrial")
(set-info :status unsat)
(declare-fun Nl3__const_12^01 () Int)
(declare-fun Nl3__const_15^01 () Int)
(declare-fun Nl3cmd2^01 () Int)
(declare-fun Nl3i24^01 () Int)
(declare-fun Nl3zer^01 () Int)
(declare-fun lam0n0 () Int)
(declare-fun lam0n1 () Int)
(declare-fun lam0n2 () Int)
(declare-fun lam0n3 () Int)
(declare-fun lam0n4 () Int)
(declare-fun lam0n5 () Int)
(declare-fun Nl3CT1 () Int)
(declare-fun lam1n0 () Int)
(declare-fun lam1n1 () Int)
(declare-fun lam1n2 () Int)
(declare-fun lam1n3 () Int)
(declare-fun lam1n4 () Int)
(declare-fun lam1n5 () Int)
(declare-fun lam2n0 () Int)
(declare-fun lam2n1 () Int)
(declare-fun lam2n2 () Int)
(declare-fun lam2n3 () Int)
(declare-fun lam2n4 () Int)
(declare-fun lam2n5 () Int)
(declare-fun lam2n6 () Int)
(declare-fun lam2n7 () Int)
(declare-fun lam3n0 () Int)
(declare-fun lam3n1 () Int)
(declare-fun lam3n2 () Int)
(declare-fun lam3n3 () Int)
(declare-fun lam3n4 () Int)
(declare-fun lam3n5 () Int)
(declare-fun lam3n6 () Int)
(declare-fun lam3n7 () Int)
(declare-fun __const_15^0 () Int)
(declare-fun cmd2^0 () Int)
(declare-fun undef12537 () Int)
(declare-fun __const_1132^0 () Int)
(declare-fun cmd1^0 () Int)
(declare-fun __const_12^0 () Int)
(declare-fun zer^0 () Int)
(declare-fun i18^0 () Int)
(declare-fun __const_1872^0 () Int)
(declare-fun undef91 () Int)
(declare-fun lam4n0 () Int)
(declare-fun lam4n1 () Int)
(declare-fun lam4n2 () Int)
(declare-fun lam4n3 () Int)
(declare-fun lam4n4 () Int)
(declare-fun lam5n0 () Int)
(declare-fun lam5n1 () Int)
(declare-fun lam5n2 () Int)
(declare-fun lam5n3 () Int)
(declare-fun lam5n4 () Int)
(assert ( and ( <= ( - 1 ) Nl3__const_12^01 ) ( <= Nl3__const_12^01 1 ) ( <= ( - 1 ) Nl3__const_15^01 ) ( <= Nl3__const_15^01 1 ) ( <= ( - 1 ) Nl3cmd2^01 ) ( <= Nl3cmd2^01 1 ) ( <= ( - 1 ) Nl3i24^01 ) ( <= Nl3i24^01 1 ) ( <= ( - 1 ) Nl3zer^01 ) ( <= Nl3zer^01 1 ) ))
(assert ( or ( and ( >= lam0n0 0 ) ( >= lam0n1 0 ) ( >= lam0n2 0 ) ( >= lam0n3 0 ) ( >= lam0n4 0 ) ( >= lam0n5 0 ) ( > ( + ( * 1 lam0n3 ) ( * 1 lam0n4 ) ( * Nl3CT1 lam0n5 ) ( - 1 ) ) 0 ) ( = ( + ( * ( - 1 ) lam0n3 ) ( * ( - 1 ) lam0n4 ) ( * Nl3__const_12^01 lam0n5 ) ) 0 ) ( = ( + ( * 1 lam0n0 ) ( * 1 lam0n3 ) ( * Nl3__const_15^01 lam0n5 ) ) 0 ) ( = ( + ( * ( - 1 ) lam0n0 ) ( * 1 lam0n4 ) ( * Nl3cmd2^01 lam0n5 ) ) 0 ) ( = ( + ( * ( - 1 ) lam0n1 ) ( * Nl3i24^01 lam0n5 ) ) 0 ) ( = ( + ( * ( - 1 ) lam0n3 ) ( * Nl3zer^01 lam0n5 ) ) 0 ) ( = ( * ( - 1 ) lam0n2 ) 0 ) ) ( and ( >= lam1n0 0 ) ( >= lam1n1 0 ) ( >= lam1n2 0 ) ( >= lam1n3 0 ) ( >= lam1n4 0 ) ( >= lam1n5 0 ) ( > ( + ( * 1 lam1n3 ) ( * 1 lam1n4 ) ( * Nl3CT1 lam1n5 ) ( - 1 ( + Nl3CT1 ( * Nl3i24^01 ( - 1 ) ) ) ) ) 0 ) ( = ( + ( * ( - 1 ) lam1n3 ) ( * ( - 1 ) lam1n4 ) ( * Nl3__const_12^01 lam1n5 ) ( - ( + 0 Nl3__const_12^01 ) ) ) 0 ) ( = ( + ( * 1 lam1n0 ) ( * 1 lam1n3 ) ( * Nl3__const_15^01 lam1n5 ) ( - ( + 0 Nl3__const_15^01 ) ) ) 0 ) ( = ( + ( * ( - 1 ) lam1n0 ) ( * 1 lam1n4 ) ( * Nl3cmd2^01 lam1n5 ) ( - ( + 0 Nl3cmd2^01 ) ) ) 0 ) ( = ( + ( * ( - 1 ) lam1n1 ) ( * Nl3i24^01 lam1n5 ) ( - ( + 0 ( * Nl3i24^01 1 ) ) ) ) 0 ) ( = ( + ( * ( - 1 ) lam1n3 ) ( * Nl3zer^01 lam1n5 ) ( - ( + 0 Nl3zer^01 ) ) ) 0 ) ( = ( * ( - 1 ) lam1n2 ) 0 ) ) ))
(assert ( or ( and ( <= ( + __const_15^0 ( * ( - 1 ) cmd2^0 ) ) 0 ) ( not ( <= ( + 1 undef12537 ) 0 ) ) ( <= ( + 1 __const_1132^0 ( * ( - 1 ) cmd1^0 ) ) 0 ) ( not ( <= ( + __const_12^0 ( * ( - 1 ) __const_15^0 ) zer^0 ) 0 ) ) ( not ( <= ( + __const_12^0 ( * ( - 1 ) cmd2^0 ) ) 0 ) ) ( <= ( + 1 i18^0 ) 0 ) ( <= ( + 1 ( * ( - 1 ) zer^0 ) ) 0 ) ( = ( + ( * ( - 1 ) __const_1872^0 ) cmd1^0 ) 0 ) ( <= ( + ( + Nl3CT1 ( * Nl3i24^01 0 ) ) ( * ( + 0 Nl3__const_12^01 ) __const_12^0 ) ( * ( + 0 Nl3__const_15^01 ) __const_15^0 ) ( * ( + 0 Nl3cmd2^01 ) cmd2^0 ) ( * ( + 0 Nl3zer^01 ) zer^0 ) ( * ( + 0 ( * Nl3i24^01 1 ) ) undef91 ) ) 0 ) ) ( and ( <= ( + __const_15^0 ( * ( - 1 ) cmd2^0 ) ) 0 ) ( not ( <= ( + 1 undef12537 ) 0 ) ) ( <= ( + 1 ( * ( - 1 ) __const_1132^0 ) cmd1^0 ) 0 ) ( not ( <= ( + __const_12^0 ( * ( - 1 ) __const_15^0 ) zer^0 ) 0 ) ) ( not ( <= ( + __const_12^0 ( * ( - 1 ) cmd2^0 ) ) 0 ) ) ( <= ( + 1 i18^0 ) 0 ) ( <= ( + 1 ( * ( - 1 ) zer^0 ) ) 0 ) ( = ( + ( * ( - 1 ) __const_1872^0 ) cmd1^0 ) 0 ) ( <= ( + ( + Nl3CT1 ( * Nl3i24^01 0 ) ) ( * ( + 0 Nl3__const_12^01 ) __const_12^0 ) ( * ( + 0 Nl3__const_15^01 ) __const_15^0 ) ( * ( + 0 Nl3cmd2^01 ) cmd2^0 ) ( * ( + 0 Nl3zer^01 ) zer^0 ) ( * ( + 0 ( * Nl3i24^01 1 ) ) undef91 ) ) 0 ) ) ))
(assert ( or ( or ( and ( >= lam4n0 0 ) ( >= lam4n1 0 ) ( >= lam4n2 0 ) ( >= lam4n3 0 ) ( >= lam4n4 0 ) ( > ( + ( * 1 lam4n1 ) ( * 1 lam4n2 ) ( * 1 lam4n3 ) ( * Nl3CT1 lam4n4 ) ( - 1 ) ) 0 ) ( = ( + ( * ( - 1 ) lam4n1 ) ( * Nl3__const_12^01 lam4n4 ) ) 0 ) ( = ( + ( * 1 lam4n0 ) ( * Nl3__const_15^01 lam4n4 ) ) 0 ) ( = ( + ( * ( - 1 ) lam4n0 ) ( * 1 lam4n1 ) ( * Nl3cmd2^01 lam4n4 ) ) 0 ) ( = ( + ( * 1 lam4n2 ) ( * Nl3i24^01 lam4n4 ) ) 0 ) ( = ( + ( * ( - 1 ) lam4n3 ) ( * Nl3zer^01 lam4n4 ) ) 0 ) ) ( and ( >= lam5n0 0 ) ( >= lam5n1 0 ) ( >= lam5n2 0 ) ( >= lam5n3 0 ) ( >= lam5n4 0 ) ( > ( + ( * 1 lam5n1 ) ( * 1 lam5n2 ) ( * 1 lam5n3 ) ( * Nl3CT1 lam5n4 ) ) 0 ) ( = ( + ( * ( - 1 ) lam5n1 ) ( * Nl3__const_12^01 lam5n4 ) ) 0 ) ( = ( + ( * 1 lam5n0 ) ( * Nl3__const_15^01 lam5n4 ) ) 0 ) ( = ( + ( * ( - 1 ) lam5n0 ) ( * 1 lam5n1 ) ( * Nl3cmd2^01 lam5n4 ) ) 0 ) ( = ( + ( * 1 lam5n2 ) ( * Nl3i24^01 lam5n4 ) ) 0 ) ( = ( + ( * ( - 1 ) lam5n3 ) ( * Nl3zer^01 lam5n4 ) ) 0 ) ( = ( - 1 ) 0 ) ) ) ( and ( and ( and ( >= lam2n0 0 ) ( >= lam2n1 0 ) ( >= lam2n2 0 ) ( >= lam2n3 0 ) ( >= lam2n4 0 ) ( >= lam2n5 0 ) ( >= lam2n6 0 ) ( > ( + ( * 1 lam2n2 ) ( * 1 lam2n3 ) ( * 1 lam2n4 ) ( * 1 lam2n5 ) ( * 1 lam2n6 ) ( - 1 ( + Nl3CT1 ( * Nl3i24^01 0 ) ) ) ) 0 ) ( = ( * 1 lam2n2 ) 0 ) ( = ( + ( * ( - 1 ) lam2n3 ) ( * ( - 1 ) lam2n4 ) ( - ( + 0 Nl3__const_12^01 ) ) ) 0 ) ( = ( + ( * 1 lam2n0 ) ( * 1 lam2n3 ) ( - ( + 0 Nl3__const_15^01 ) ) ) 0 ) ( = ( * 1 lam2n7 ) 0 ) ( = ( + ( * ( - 1 ) lam2n2 ) ( * ( - 1 ) lam2n7 ) ) 0 ) ( = ( + ( * ( - 1 ) lam2n0 ) ( * 1 lam2n4 ) ( - ( + 0 Nl3cmd2^01 ) ) ) 0 ) ( = ( * 1 lam2n5 ) 0 ) ( = ( + ( * ( - 1 ) lam2n3 ) ( * ( - 1 ) lam2n6 ) ( - ( + 0 Nl3zer^01 ) ) ) 0 ) ( = ( - ( + 0 ( * Nl3i24^01 1 ) ) ) 0 ) ( = ( * ( - 1 ) lam2n1 ) 0 ) ) ( and ( >= lam3n0 0 ) ( >= lam3n1 0 ) ( >= lam3n2 0 ) ( >= lam3n3 0 ) ( >= lam3n4 0 ) ( >= lam3n5 0 ) ( >= lam3n6 0 ) ( > ( + ( * 1 lam3n2 ) ( * 1 lam3n3 ) ( * 1 lam3n4 ) ( * 1 lam3n5 ) ( * 1 lam3n6 ) ( - 1 ( + Nl3CT1 ( * Nl3i24^01 0 ) ) ) ) 0 ) ( = ( * ( - 1 ) lam3n2 ) 0 ) ( = ( + ( * ( - 1 ) lam3n3 ) ( * ( - 1 ) lam3n4 ) ( - ( + 0 Nl3__const_12^01 ) ) ) 0 ) ( = ( + ( * 1 lam3n0 ) ( * 1 lam3n3 ) ( - ( + 0 Nl3__const_15^01 ) ) ) 0 ) ( = ( * 1 lam3n7 ) 0 ) ( = ( + ( * 1 lam3n2 ) ( * ( - 1 ) lam3n7 ) ) 0 ) ( = ( + ( * ( - 1 ) lam3n0 ) ( * 1 lam3n4 ) ( - ( + 0 Nl3cmd2^01 ) ) ) 0 ) ( = ( * 1 lam3n5 ) 0 ) ( = ( + ( * ( - 1 ) lam3n3 ) ( * ( - 1 ) lam3n6 ) ( - ( + 0 Nl3zer^01 ) ) ) 0 ) ( = ( - ( + 0 ( * Nl3i24^01 1 ) ) ) 0 ) ( = ( * ( - 1 ) lam3n1 ) 0 ) ) ) ( and ( >= lam0n0 0 ) ( >= lam0n1 0 ) ( >= lam0n2 0 ) ( >= lam0n3 0 ) ( >= lam0n4 0 ) ( >= lam0n5 0 ) ( > ( + ( * 1 lam0n3 ) ( * 1 lam0n4 ) ( * Nl3CT1 lam0n5 ) ( - 1 ) ) 0 ) ( = ( + ( * ( - 1 ) lam0n3 ) ( * ( - 1 ) lam0n4 ) ( * Nl3__const_12^01 lam0n5 ) ) 0 ) ( = ( + ( * 1 lam0n0 ) ( * 1 lam0n3 ) ( * Nl3__const_15^01 lam0n5 ) ) 0 ) ( = ( + ( * ( - 1 ) lam0n0 ) ( * 1 lam0n4 ) ( * Nl3cmd2^01 lam0n5 ) ) 0 ) ( = ( + ( * ( - 1 ) lam0n1 ) ( * Nl3i24^01 lam0n5 ) ) 0 ) ( = ( + ( * ( - 1 ) lam0n3 ) ( * Nl3zer^01 lam0n5 ) ) 0 ) ( = ( * ( - 1 ) lam0n2 ) 0 ) ) ) ))
(check-sat)
(exit)
